% Paramètres d'entrée avec 11 nombres donnés

grilleIn = [|-11,-13,-4,      0, 20, 0, 0
            | -6, -5,       0, 17, 0, 36, 0
            | -7,         0, 0, 0,  24, 33, 0
            |           14, 0, 11, -1, 0, 31, 0
            |            0,  0,  0,  0,  27,  0        , -8
            |              0,  6,  1,  0,  0        , -2, -9
            |                0,  0,  0,  0        ,-3,-12,-10|];
